Minimize
  obj: x0 + x1 + x2 + x3 + x4 + x5 + x6 + x7 + x8 + x9 + x10 + x11

Subject To
  c0: x2 + x3 + x4 + x5 + x10 + x11 = 75
  c1: x1 + x2 + x4 + x9 + x10 + x11 = 53
  c2: x0 + x1 + x2 + x4 + x6 + x9 + x10 + x11 = 61
  c3: x2 + x4 + x7 + x10 + x11 = 43
  c4: x0 + x1 + x2 + x3 + x4 + x6 + x9 + x10 = 69
  c5: x3 + x4 + x7 + x8 + x9 + x11 = 60
  c6: x1 + x3 + x9 = 27
  c7: x9 + x10 = 6
  c8: x2 + x4 + x9 + x11 = 41
  c9: x0 + x1 + x4 + x9 + x11 = 32

Bounds
  x0 >= 0
  x1 >= 0
  x2 >= 0
  x3 >= 0
  x4 >= 0
  x5 >= 0
  x6 >= 0
  x7 >= 0
  x8 >= 0
  x9 >= 0
  x10 >= 0
  x11 >= 0

Generals
  x0 x1 x2 x3 x4 x5 x6 x7 x8 x9 x10 x11

End
